c FILE: n200d20/random-n200-d20-5.col

p edge 200 3980
e 1 9
e 1 19
e 1 23
e 1 29
e 1 30
e 1 31
e 1 34
e 1 41
e 1 48
e 1 49
e 1 54
e 1 57
e 1 58
e 1 64
e 1 65
e 1 67
e 1 72
e 1 74
e 1 76
e 1 90
e 1 104
e 1 110
e 1 112
e 1 125
e 1 154
e 1 156
e 1 158
e 1 162
e 1 175
e 1 182
e 1 189
e 1 196
e 1 197
e 1 200
e 2 7
e 2 23
e 2 37
e 2 38
e 2 42
e 2 43
e 2 50
e 2 51
e 2 57
e 2 62
e 2 67
e 2 75
e 2 80
e 2 81
e 2 82
e 2 83
e 2 87
e 2 90
e 2 94
e 2 99
e 2 102
e 2 105
e 2 110
e 2 112
e 2 124
e 2 125
e 2 139
e 2 142
e 2 144
e 2 150
e 2 155
e 2 168
e 2 186
e 2 187
e 2 189
e 2 192
e 2 198
e 2 199
e 3 8
e 3 10
e 3 14
e 3 16
e 3 22
e 3 54
e 3 55
e 3 56
e 3 58
e 3 69
e 3 104
e 3 105
e 3 106
e 3 109
e 3 121
e 3 125
e 3 128
e 3 131
e 3 139
e 3 140
e 3 141
e 3 143
e 3 153
e 3 158
e 3 163
e 3 173
e 3 186
e 3 193
e 3 199
e 4 9
e 4 10
e 4 11
e 4 18
e 4 26
e 4 33
e 4 37
e 4 48
e 4 60
e 4 64
e 4 70
e 4 73
e 4 77
e 4 79
e 4 80
e 4 95
e 4 99
e 4 100
e 4 106
e 4 118
e 4 119
e 4 120
e 4 126
e 4 129
e 4 138
e 4 148
e 4 152
e 4 153
e 4 156
e 4 163
e 4 170
e 4 174
e 4 191
e 4 192
e 4 200
e 5 8
e 5 26
e 5 28
e 5 31
e 5 37
e 5 39
e 5 42
e 5 45
e 5 56
e 5 58
e 5 61
e 5 62
e 5 69
e 5 75
e 5 76
e 5 78
e 5 79
e 5 80
e 5 83
e 5 87
e 5 88
e 5 93
e 5 103
e 5 119
e 5 121
e 5 126
e 5 133
e 5 154
e 5 160
e 5 169
e 5 173
e 5 179
e 5 181
e 5 189
e 5 190
e 5 194
e 5 195
e 6 21
e 6 25
e 6 26
e 6 29
e 6 30
e 6 44
e 6 46
e 6 57
e 6 61
e 6 82
e 6 84
e 6 86
e 6 87
e 6 90
e 6 91
e 6 97
e 6 108
e 6 111
e 6 112
e 6 126
e 6 129
e 6 134
e 6 158
e 6 161
e 6 164
e 6 167
e 6 170
e 6 185
e 6 191
e 6 198
e 6 199
e 7 8
e 7 25
e 7 27
e 7 46
e 7 50
e 7 53
e 7 64
e 7 74
e 7 75
e 7 82
e 7 84
e 7 87
e 7 101
e 7 119
e 7 120
e 7 127
e 7 140
e 7 150
e 7 151
e 7 153
e 7 154
e 7 158
e 7 160
e 7 162
e 7 163
e 7 164
e 7 170
e 7 174
e 7 180
e 7 188
e 7 196
e 8 9
e 8 12
e 8 13
e 8 14
e 8 18
e 8 19
e 8 22
e 8 25
e 8 26
e 8 30
e 8 33
e 8 44
e 8 48
e 8 50
e 8 53
e 8 54
e 8 57
e 8 61
e 8 64
e 8 67
e 8 74
e 8 84
e 8 85
e 8 87
e 8 96
e 8 102
e 8 117
e 8 122
e 8 130
e 8 133
e 8 137
e 8 141
e 8 147
e 8 151
e 8 162
e 8 166
e 8 167
e 8 177
e 8 190
e 8 193
e 8 197
e 8 199
e 9 11
e 9 14
e 9 16
e 9 22
e 9 24
e 9 25
e 9 29
e 9 30
e 9 32
e 9 33
e 9 42
e 9 59
e 9 61
e 9 63
e 9 65
e 9 67
e 9 69
e 9 74
e 9 77
e 9 84
e 9 92
e 9 98
e 9 108
e 9 111
e 9 115
e 9 120
e 9 133
e 9 139
e 9 145
e 9 146
e 9 154
e 9 155
e 9 159
e 9 161
e 9 162
e 9 163
e 9 166
e 9 175
e 9 182
e 9 183
e 9 191
e 9 193
e 9 195
e 9 198
e 10 14
e 10 17
e 10 19
e 10 23
e 10 25
e 10 26
e 10 28
e 10 36
e 10 51
e 10 52
e 10 53
e 10 59
e 10 71
e 10 73
e 10 76
e 10 80
e 10 82
e 10 86
e 10 87
e 10 88
e 10 89
e 10 95
e 10 98
e 10 101
e 10 102
e 10 104
e 10 105
e 10 109
e 10 110
e 10 115
e 10 123
e 10 132
e 10 135
e 10 137
e 10 142
e 10 148
e 10 163
e 10 173
e 10 177
e 10 187
e 11 20
e 11 37
e 11 38
e 11 42
e 11 53
e 11 64
e 11 67
e 11 68
e 11 69
e 11 79
e 11 83
e 11 84
e 11 102
e 11 105
e 11 111
e 11 116
e 11 120
e 11 132
e 11 135
e 11 142
e 11 153
e 11 156
e 11 158
e 11 160
e 11 169
e 11 170
e 11 176
e 11 178
e 11 180
e 11 181
e 11 186
e 11 187
e 11 198
e 12 13
e 12 14
e 12 16
e 12 19
e 12 21
e 12 24
e 12 25
e 12 28
e 12 29
e 12 32
e 12 37
e 12 40
e 12 55
e 12 61
e 12 63
e 12 73
e 12 83
e 12 90
e 12 103
e 12 104
e 12 109
e 12 112
e 12 115
e 12 125
e 12 129
e 12 136
e 12 147
e 12 152
e 12 153
e 12 164
e 12 168
e 12 170
e 12 177
e 12 178
e 12 180
e 12 192
e 12 193
e 12 194
e 12 199
e 12 200
e 13 19
e 13 28
e 13 33
e 13 35
e 13 37
e 13 40
e 13 48
e 13 74
e 13 82
e 13 93
e 13 100
e 13 107
e 13 113
e 13 126
e 13 134
e 13 147
e 13 156
e 13 160
e 13 176
e 13 178
e 13 185
e 13 186
e 13 191
e 13 196
e 13 198
e 14 22
e 14 54
e 14 64
e 14 67
e 14 69
e 14 74
e 14 77
e 14 79
e 14 80
e 14 85
e 14 87
e 14 94
e 14 103
e 14 108
e 14 112
e 14 113
e 14 115
e 14 116
e 14 122
e 14 123
e 14 128
e 14 150
e 14 156
e 14 164
e 14 178
e 14 179
e 14 182
e 14 183
e 14 184
e 14 186
e 14 189
e 15 17
e 15 29
e 15 32
e 15 34
e 15 35
e 15 36
e 15 38
e 15 40
e 15 42
e 15 44
e 15 58
e 15 71
e 15 73
e 15 74
e 15 80
e 15 89
e 15 94
e 15 96
e 15 99
e 15 101
e 15 106
e 15 121
e 15 126
e 15 134
e 15 136
e 15 138
e 15 141
e 15 143
e 15 146
e 15 150
e 15 154
e 15 157
e 15 160
e 15 173
e 15 183
e 15 193
e 16 19
e 16 20
e 16 27
e 16 36
e 16 41
e 16 45
e 16 53
e 16 57
e 16 58
e 16 63
e 16 64
e 16 67
e 16 68
e 16 71
e 16 76
e 16 78
e 16 101
e 16 107
e 16 117
e 16 123
e 16 127
e 16 134
e 16 144
e 16 146
e 16 152
e 16 155
e 16 156
e 16 159
e 16 163
e 16 165
e 16 167
e 16 174
e 16 182
e 16 189
e 16 190
e 16 194
e 16 200
e 17 25
e 17 28
e 17 30
e 17 43
e 17 50
e 17 54
e 17 55
e 17 56
e 17 57
e 17 58
e 17 61
e 17 62
e 17 77
e 17 90
e 17 95
e 17 100
e 17 110
e 17 112
e 17 122
e 17 125
e 17 132
e 17 136
e 17 141
e 17 147
e 17 155
e 17 156
e 17 157
e 17 158
e 17 182
e 17 183
e 17 186
e 17 187
e 17 188
e 17 190
e 17 191
e 17 192
e 17 194
e 17 195
e 17 198
e 17 199
e 17 200
e 18 19
e 18 23
e 18 25
e 18 26
e 18 30
e 18 38
e 18 39
e 18 40
e 18 45
e 18 52
e 18 54
e 18 61
e 18 69
e 18 75
e 18 77
e 18 79
e 18 84
e 18 88
e 18 98
e 18 103
e 18 107
e 18 113
e 18 122
e 18 124
e 18 126
e 18 130
e 18 132
e 18 135
e 18 137
e 18 139
e 18 141
e 18 145
e 18 152
e 18 153
e 18 160
e 18 163
e 18 193
e 18 199
e 19 22
e 19 26
e 19 27
e 19 28
e 19 32
e 19 36
e 19 37
e 19 38
e 19 53
e 19 58
e 19 61
e 19 71
e 19 75
e 19 77
e 19 78
e 19 85
e 19 89
e 19 99
e 19 101
e 19 102
e 19 107
e 19 112
e 19 117
e 19 126
e 19 127
e 19 131
e 19 137
e 19 141
e 19 147
e 19 148
e 19 152
e 19 158
e 19 159
e 19 164
e 19 171
e 19 176
e 19 182
e 19 185
e 19 187
e 19 194
e 19 198
e 19 200
e 20 26
e 20 40
e 20 45
e 20 51
e 20 53
e 20 56
e 20 62
e 20 63
e 20 65
e 20 85
e 20 88
e 20 90
e 20 92
e 20 96
e 20 108
e 20 109
e 20 110
e 20 114
e 20 118
e 20 126
e 20 127
e 20 130
e 20 146
e 20 148
e 20 152
e 20 153
e 20 155
e 20 158
e 20 159
e 20 163
e 20 164
e 20 167
e 20 170
e 20 174
e 20 175
e 20 194
e 21 31
e 21 38
e 21 40
e 21 42
e 21 46
e 21 59
e 21 62
e 21 72
e 21 75
e 21 79
e 21 92
e 21 93
e 21 94
e 21 95
e 21 109
e 21 111
e 21 116
e 21 117
e 21 120
e 21 122
e 21 129
e 21 140
e 21 142
e 21 157
e 21 158
e 21 170
e 21 177
e 21 179
e 21 191
e 21 195
e 22 28
e 22 34
e 22 37
e 22 49
e 22 70
e 22 93
e 22 102
e 22 107
e 22 113
e 22 118
e 22 122
e 22 126
e 22 127
e 22 130
e 22 136
e 22 138
e 22 141
e 22 147
e 22 154
e 22 156
e 22 157
e 22 159
e 22 173
e 22 178
e 22 179
e 22 182
e 22 183
e 22 185
e 22 191
e 22 195
e 22 199
e 23 24
e 23 25
e 23 34
e 23 38
e 23 40
e 23 53
e 23 62
e 23 64
e 23 65
e 23 84
e 23 85
e 23 86
e 23 87
e 23 93
e 23 97
e 23 102
e 23 104
e 23 105
e 23 106
e 23 111
e 23 115
e 23 129
e 23 131
e 23 143
e 23 145
e 23 150
e 23 160
e 23 161
e 23 168
e 23 171
e 23 176
e 23 188
e 23 189
e 23 198
e 24 32
e 24 36
e 24 43
e 24 46
e 24 62
e 24 63
e 24 64
e 24 66
e 24 68
e 24 71
e 24 76
e 24 77
e 24 85
e 24 89
e 24 90
e 24 93
e 24 98
e 24 100
e 24 102
e 24 108
e 24 115
e 24 116
e 24 124
e 24 125
e 24 131
e 24 132
e 24 140
e 24 150
e 24 154
e 24 161
e 24 162
e 24 164
e 24 170
e 24 183
e 24 187
e 24 190
e 24 195
e 24 196
e 25 26
e 25 27
e 25 29
e 25 40
e 25 42
e 25 47
e 25 49
e 25 53
e 25 55
e 25 57
e 25 62
e 25 63
e 25 79
e 25 83
e 25 90
e 25 107
e 25 111
e 25 120
e 25 127
e 25 134
e 25 135
e 25 151
e 25 158
e 25 160
e 25 162
e 25 164
e 25 168
e 25 172
e 25 175
e 25 187
e 25 191
e 25 192
e 25 193
e 25 196
e 26 31
e 26 36
e 26 37
e 26 38
e 26 40
e 26 41
e 26 44
e 26 53
e 26 58
e 26 64
e 26 69
e 26 75
e 26 78
e 26 79
e 26 91
e 26 93
e 26 97
e 26 106
e 26 110
e 26 112
e 26 122
e 26 124
e 26 125
e 26 126
e 26 136
e 26 138
e 26 149
e 26 152
e 26 156
e 26 158
e 26 161
e 26 169
e 26 178
e 26 185
e 26 189
e 26 197
e 26 199
e 27 38
e 27 43
e 27 44
e 27 47
e 27 48
e 27 52
e 27 54
e 27 56
e 27 57
e 27 60
e 27 72
e 27 81
e 27 85
e 27 89
e 27 91
e 27 93
e 27 95
e 27 104
e 27 112
e 27 121
e 27 122
e 27 126
e 27 135
e 27 136
e 27 139
e 27 141
e 27 145
e 27 146
e 27 150
e 27 154
e 27 160
e 27 162
e 27 167
e 27 173
e 27 174
e 27 183
e 27 197
e 27 199
e 27 200
e 28 32
e 28 39
e 28 45
e 28 47
e 28 53
e 28 58
e 28 61
e 28 66
e 28 72
e 28 78
e 28 84
e 28 91
e 28 92
e 28 93
e 28 95
e 28 97
e 28 99
e 28 101
e 28 103
e 28 113
e 28 115
e 28 122
e 28 123
e 28 126
e 28 129
e 28 130
e 28 133
e 28 134
e 28 144
e 28 145
e 28 149
e 28 153
e 28 155
e 28 156
e 28 163
e 28 165
e 28 166
e 28 167
e 28 169
e 28 170
e 28 175
e 28 176
e 28 179
e 28 182
e 28 188
e 28 193
e 28 199
e 29 33
e 29 37
e 29 41
e 29 44
e 29 46
e 29 56
e 29 62
e 29 64
e 29 65
e 29 66
e 29 74
e 29 79
e 29 82
e 29 85
e 29 87
e 29 88
e 29 95
e 29 101
e 29 113
e 29 115
e 29 118
e 29 133
e 29 144
e 29 146
e 29 149
e 29 158
e 29 159
e 29 168
e 29 172
e 29 175
e 29 177
e 29 190
e 29 195
e 29 199
e 30 31
e 30 32
e 30 35
e 30 38
e 30 40
e 30 42
e 30 51
e 30 52
e 30 62
e 30 64
e 30 65
e 30 71
e 30 75
e 30 84
e 30 85
e 30 104
e 30 111
e 30 122
e 30 123
e 30 126
e 30 129
e 30 133
e 30 141
e 30 151
e 30 152
e 30 153
e 30 154
e 30 164
e 30 166
e 30 172
e 30 175
e 30 177
e 30 178
e 30 181
e 30 184
e 30 187
e 30 188
e 30 189
e 30 192
e 31 37
e 31 43
e 31 45
e 31 54
e 31 67
e 31 70
e 31 71
e 31 80
e 31 81
e 31 84
e 31 88
e 31 91
e 31 95
e 31 99
e 31 101
e 31 105
e 31 106
e 31 136
e 31 144
e 31 147
e 31 151
e 31 158
e 31 159
e 31 160
e 31 162
e 31 170
e 31 172
e 31 177
e 31 178
e 31 180
e 31 185
e 31 187
e 31 189
e 31 190
e 31 192
e 32 37
e 32 40
e 32 45
e 32 49
e 32 50
e 32 53
e 32 55
e 32 60
e 32 61
e 32 63
e 32 76
e 32 78
e 32 79
e 32 81
e 32 88
e 32 97
e 32 105
e 32 117
e 32 123
e 32 125
e 32 133
e 32 137
e 32 144
e 32 145
e 32 148
e 32 151
e 32 153
e 32 155
e 32 160
e 32 169
e 32 173
e 32 174
e 32 177
e 32 186
e 32 190
e 32 194
e 32 195
e 32 198
e 32 200
e 33 43
e 33 45
e 33 46
e 33 62
e 33 65
e 33 75
e 33 80
e 33 81
e 33 82
e 33 87
e 33 99
e 33 100
e 33 104
e 33 126
e 33 129
e 33 138
e 33 143
e 33 147
e 33 150
e 33 158
e 33 159
e 33 160
e 33 162
e 33 163
e 33 169
e 33 172
e 33 174
e 33 176
e 33 178
e 33 179
e 33 180
e 33 184
e 33 186
e 33 188
e 33 193
e 34 43
e 34 52
e 34 53
e 34 57
e 34 59
e 34 63
e 34 67
e 34 74
e 34 87
e 34 90
e 34 91
e 34 104
e 34 106
e 34 113
e 34 117
e 34 122
e 34 123
e 34 127
e 34 137
e 34 148
e 34 155
e 34 157
e 34 172
e 34 176
e 34 178
e 34 180
e 34 181
e 34 182
e 34 183
e 34 194
e 34 196
e 35 36
e 35 38
e 35 47
e 35 55
e 35 57
e 35 59
e 35 61
e 35 69
e 35 70
e 35 72
e 35 73
e 35 75
e 35 80
e 35 85
e 35 89
e 35 97
e 35 101
e 35 104
e 35 108
e 35 110
e 35 111
e 35 114
e 35 115
e 35 118
e 35 121
e 35 126
e 35 129
e 35 130
e 35 136
e 35 145
e 35 149
e 35 152
e 35 153
e 35 156
e 35 158
e 35 160
e 35 165
e 35 175
e 35 176
e 35 179
e 35 181
e 35 189
e 35 192
e 36 37
e 36 43
e 36 56
e 36 60
e 36 69
e 36 75
e 36 77
e 36 82
e 36 90
e 36 92
e 36 95
e 36 96
e 36 103
e 36 104
e 36 106
e 36 111
e 36 112
e 36 116
e 36 125
e 36 126
e 36 139
e 36 142
e 36 145
e 36 153
e 36 169
e 36 177
e 36 179
e 36 180
e 36 182
e 36 198
e 36 200
e 37 58
e 37 68
e 37 71
e 37 72
e 37 75
e 37 80
e 37 93
e 37 98
e 37 100
e 37 102
e 37 108
e 37 110
e 37 113
e 37 124
e 37 127
e 37 135
e 37 151
e 37 152
e 37 153
e 37 159
e 37 169
e 37 176
e 37 177
e 37 182
e 37 183
e 37 193
e 37 195
e 37 196
e 38 39
e 38 41
e 38 48
e 38 49
e 38 59
e 38 68
e 38 79
e 38 81
e 38 83
e 38 86
e 38 89
e 38 90
e 38 93
e 38 107
e 38 109
e 38 117
e 38 119
e 38 123
e 38 125
e 38 136
e 38 138
e 38 141
e 38 142
e 38 150
e 38 157
e 38 168
e 38 173
e 38 175
e 38 177
e 38 180
e 38 194
e 38 195
e 39 47
e 39 52
e 39 61
e 39 62
e 39 66
e 39 69
e 39 71
e 39 73
e 39 78
e 39 82
e 39 86
e 39 91
e 39 94
e 39 99
e 39 106
e 39 115
e 39 118
e 39 123
e 39 131
e 39 135
e 39 145
e 39 146
e 39 149
e 39 153
e 39 158
e 39 161
e 39 163
e 39 172
e 39 176
e 39 184
e 39 196
e 39 198
e 40 43
e 40 44
e 40 49
e 40 54
e 40 60
e 40 66
e 40 77
e 40 79
e 40 82
e 40 87
e 40 88
e 40 92
e 40 94
e 40 107
e 40 108
e 40 111
e 40 119
e 40 123
e 40 128
e 40 130
e 40 133
e 40 138
e 40 145
e 40 148
e 40 151
e 40 153
e 40 165
e 40 174
e 40 176
e 40 177
e 40 189
e 40 191
e 40 193
e 40 196
e 41 58
e 41 60
e 41 62
e 41 69
e 41 71
e 41 73
e 41 75
e 41 91
e 41 98
e 41 103
e 41 105
e 41 109
e 41 117
e 41 118
e 41 119
e 41 124
e 41 131
e 41 132
e 41 141
e 41 143
e 41 145
e 41 148
e 41 151
e 41 155
e 41 158
e 41 160
e 41 163
e 41 173
e 41 181
e 41 184
e 41 186
e 41 189
e 41 190
e 42 43
e 42 44
e 42 48
e 42 65
e 42 66
e 42 70
e 42 72
e 42 73
e 42 83
e 42 86
e 42 88
e 42 89
e 42 91
e 42 120
e 42 123
e 42 125
e 42 130
e 42 133
e 42 140
e 42 148
e 42 152
e 42 156
e 42 161
e 42 168
e 42 171
e 42 173
e 42 178
e 42 179
e 42 181
e 42 183
e 42 189
e 42 192
e 42 195
e 43 48
e 43 49
e 43 52
e 43 54
e 43 59
e 43 61
e 43 62
e 43 65
e 43 68
e 43 69
e 43 70
e 43 71
e 43 83
e 43 86
e 43 98
e 43 100
e 43 101
e 43 104
e 43 109
e 43 116
e 43 126
e 43 138
e 43 145
e 43 147
e 43 159
e 43 164
e 43 172
e 43 173
e 43 174
e 43 177
e 43 178
e 43 185
e 43 189
e 44 47
e 44 65
e 44 66
e 44 67
e 44 68
e 44 72
e 44 79
e 44 88
e 44 94
e 44 107
e 44 108
e 44 113
e 44 114
e 44 121
e 44 124
e 44 125
e 44 130
e 44 132
e 44 133
e 44 134
e 44 137
e 44 140
e 44 153
e 44 154
e 44 156
e 44 161
e 44 174
e 44 182
e 44 192
e 45 55
e 45 60
e 45 61
e 45 64
e 45 67
e 45 72
e 45 77
e 45 78
e 45 79
e 45 83
e 45 85
e 45 88
e 45 94
e 45 97
e 45 102
e 45 110
e 45 112
e 45 114
e 45 120
e 45 129
e 45 134
e 45 141
e 45 144
e 45 150
e 45 155
e 45 163
e 45 167
e 45 172
e 45 192
e 45 194
e 45 196
e 46 48
e 46 57
e 46 59
e 46 74
e 46 79
e 46 81
e 46 85
e 46 87
e 46 93
e 46 95
e 46 100
e 46 102
e 46 113
e 46 114
e 46 118
e 46 119
e 46 127
e 46 129
e 46 135
e 46 136
e 46 138
e 46 140
e 46 142
e 46 158
e 46 161
e 46 163
e 46 168
e 46 176
e 46 177
e 46 188
e 46 189
e 46 192
e 46 195
e 47 48
e 47 49
e 47 51
e 47 53
e 47 60
e 47 61
e 47 64
e 47 69
e 47 70
e 47 75
e 47 82
e 47 83
e 47 97
e 47 99
e 47 101
e 47 102
e 47 106
e 47 108
e 47 110
e 47 120
e 47 125
e 47 129
e 47 139
e 47 141
e 47 143
e 47 155
e 47 159
e 47 161
e 47 170
e 47 174
e 47 176
e 47 186
e 47 198
e 48 49
e 48 55
e 48 58
e 48 61
e 48 62
e 48 70
e 48 72
e 48 76
e 48 90
e 48 94
e 48 99
e 48 110
e 48 114
e 48 118
e 48 124
e 48 129
e 48 134
e 48 145
e 48 154
e 48 162
e 48 173
e 48 175
e 48 177
e 48 183
e 48 190
e 48 196
e 48 197
e 48 199
e 49 55
e 49 57
e 49 71
e 49 85
e 49 89
e 49 97
e 49 98
e 49 104
e 49 105
e 49 109
e 49 114
e 49 124
e 49 126
e 49 130
e 49 131
e 49 146
e 49 150
e 49 151
e 49 164
e 49 166
e 49 167
e 49 170
e 49 172
e 49 187
e 49 200
e 50 63
e 50 65
e 50 67
e 50 84
e 50 105
e 50 118
e 50 121
e 50 123
e 50 124
e 50 130
e 50 131
e 50 138
e 50 139
e 50 142
e 50 145
e 50 147
e 50 148
e 50 153
e 50 159
e 50 164
e 50 172
e 50 173
e 50 193
e 50 194
e 51 54
e 51 58
e 51 62
e 51 64
e 51 68
e 51 70
e 51 72
e 51 78
e 51 86
e 51 87
e 51 90
e 51 96
e 51 102
e 51 105
e 51 106
e 51 112
e 51 117
e 51 118
e 51 124
e 51 157
e 51 162
e 51 167
e 51 168
e 51 169
e 51 176
e 51 179
e 51 190
e 51 192
e 51 197
e 52 55
e 52 65
e 52 77
e 52 90
e 52 93
e 52 96
e 52 99
e 52 111
e 52 114
e 52 117
e 52 126
e 52 131
e 52 137
e 52 140
e 52 144
e 52 148
e 52 163
e 52 164
e 52 165
e 52 174
e 52 179
e 52 187
e 52 188
e 52 189
e 52 198
e 53 54
e 53 61
e 53 71
e 53 79
e 53 82
e 53 85
e 53 87
e 53 91
e 53 92
e 53 93
e 53 106
e 53 114
e 53 117
e 53 119
e 53 123
e 53 134
e 53 138
e 53 140
e 53 152
e 53 155
e 53 161
e 53 163
e 53 166
e 53 168
e 53 174
e 53 178
e 53 184
e 53 188
e 53 193
e 53 197
e 53 200
e 54 55
e 54 57
e 54 58
e 54 62
e 54 64
e 54 67
e 54 68
e 54 73
e 54 75
e 54 76
e 54 88
e 54 94
e 54 101
e 54 102
e 54 105
e 54 106
e 54 107
e 54 109
e 54 114
e 54 115
e 54 124
e 54 126
e 54 128
e 54 135
e 54 142
e 54 148
e 54 149
e 54 166
e 54 175
e 54 176
e 54 182
e 54 185
e 54 186
e 54 196
e 55 56
e 55 66
e 55 67
e 55 69
e 55 76
e 55 87
e 55 88
e 55 101
e 55 103
e 55 112
e 55 115
e 55 125
e 55 134
e 55 135
e 55 138
e 55 141
e 55 142
e 55 144
e 55 146
e 55 153
e 55 154
e 55 156
e 55 157
e 55 158
e 55 163
e 55 164
e 55 175
e 55 182
e 55 185
e 55 186
e 55 191
e 55 194
e 55 195
e 56 57
e 56 61
e 56 64
e 56 67
e 56 68
e 56 76
e 56 85
e 56 86
e 56 88
e 56 90
e 56 108
e 56 113
e 56 119
e 56 122
e 56 128
e 56 130
e 56 136
e 56 138
e 56 149
e 56 153
e 56 159
e 56 160
e 56 163
e 56 187
e 56 190
e 56 192
e 56 195
e 57 60
e 57 61
e 57 64
e 57 68
e 57 83
e 57 87
e 57 97
e 57 99
e 57 100
e 57 103
e 57 109
e 57 115
e 57 117
e 57 119
e 57 122
e 57 124
e 57 126
e 57 133
e 57 134
e 57 139
e 57 145
e 57 152
e 57 154
e 57 168
e 57 170
e 57 174
e 57 176
e 57 180
e 57 181
e 57 182
e 57 186
e 57 195
e 57 198
e 58 59
e 58 60
e 58 73
e 58 76
e 58 79
e 58 81
e 58 97
e 58 99
e 58 102
e 58 111
e 58 114
e 58 117
e 58 120
e 58 129
e 58 135
e 58 141
e 58 145
e 58 146
e 58 154
e 58 157
e 58 159
e 58 185
e 58 193
e 58 194
e 58 196
e 58 197
e 59 60
e 59 64
e 59 72
e 59 73
e 59 74
e 59 77
e 59 80
e 59 81
e 59 85
e 59 87
e 59 93
e 59 97
e 59 107
e 59 108
e 59 116
e 59 117
e 59 120
e 59 124
e 59 125
e 59 130
e 59 133
e 59 134
e 59 137
e 59 140
e 59 148
e 59 153
e 59 165
e 59 167
e 59 168
e 59 175
e 59 176
e 59 185
e 59 196
e 60 64
e 60 70
e 60 71
e 60 72
e 60 79
e 60 80
e 60 82
e 60 86
e 60 87
e 60 95
e 60 96
e 60 97
e 60 98
e 60 101
e 60 108
e 60 109
e 60 116
e 60 118
e 60 121
e 60 123
e 60 124
e 60 136
e 60 145
e 60 148
e 60 153
e 60 155
e 60 157
e 60 170
e 60 181
e 60 185
e 60 195
e 60 196
e 60 197
e 60 198
e 60 199
e 61 62
e 61 63
e 61 64
e 61 73
e 61 82
e 61 86
e 61 92
e 61 93
e 61 94
e 61 102
e 61 111
e 61 127
e 61 129
e 61 130
e 61 132
e 61 133
e 61 142
e 61 144
e 61 156
e 61 162
e 61 164
e 61 169
e 61 175
e 61 180
e 61 185
e 61 188
e 61 189
e 61 190
e 61 194
e 61 200
e 62 72
e 62 80
e 62 86
e 62 88
e 62 93
e 62 95
e 62 98
e 62 106
e 62 107
e 62 110
e 62 114
e 62 119
e 62 120
e 62 121
e 62 123
e 62 125
e 62 130
e 62 134
e 62 137
e 62 139
e 62 155
e 62 159
e 62 167
e 62 172
e 62 173
e 62 175
e 62 178
e 62 179
e 62 187
e 62 189
e 62 190
e 62 191
e 62 194
e 63 74
e 63 78
e 63 83
e 63 84
e 63 87
e 63 99
e 63 101
e 63 104
e 63 110
e 63 112
e 63 114
e 63 121
e 63 128
e 63 130
e 63 131
e 63 136
e 63 142
e 63 144
e 63 147
e 63 154
e 63 155
e 63 157
e 63 166
e 63 172
e 63 174
e 63 175
e 63 176
e 63 177
e 63 181
e 63 182
e 63 187
e 63 189
e 63 190
e 64 68
e 64 73
e 64 85
e 64 98
e 64 104
e 64 107
e 64 109
e 64 117
e 64 118
e 64 122
e 64 130
e 64 136
e 64 137
e 64 141
e 64 146
e 64 151
e 64 156
e 64 158
e 64 160
e 64 166
e 64 171
e 64 173
e 64 174
e 64 193
e 64 194
e 64 195
e 64 200
e 65 70
e 65 74
e 65 79
e 65 85
e 65 89
e 65 92
e 65 101
e 65 110
e 65 113
e 65 114
e 65 120
e 65 122
e 65 125
e 65 127
e 65 136
e 65 145
e 65 149
e 65 150
e 65 152
e 65 157
e 65 166
e 65 176
e 65 177
e 65 178
e 65 181
e 65 182
e 65 188
e 65 198
e 65 199
e 66 70
e 66 73
e 66 81
e 66 86
e 66 88
e 66 90
e 66 96
e 66 99
e 66 100
e 66 112
e 66 124
e 66 128
e 66 133
e 66 139
e 66 143
e 66 150
e 66 151
e 66 154
e 66 155
e 66 156
e 66 158
e 66 165
e 66 166
e 66 170
e 66 173
e 66 180
e 66 181
e 66 182
e 66 183
e 66 197
e 67 68
e 67 72
e 67 77
e 67 88
e 67 89
e 67 90
e 67 93
e 67 96
e 67 103
e 67 108
e 67 112
e 67 114
e 67 116
e 67 119
e 67 127
e 67 130
e 67 132
e 67 135
e 67 138
e 67 144
e 67 145
e 67 151
e 67 152
e 67 159
e 67 160
e 67 169
e 67 173
e 67 179
e 67 182
e 67 183
e 67 188
e 67 193
e 67 194
e 67 197
e 68 69
e 68 80
e 68 81
e 68 89
e 68 94
e 68 96
e 68 98
e 68 106
e 68 107
e 68 108
e 68 114
e 68 117
e 68 124
e 68 131
e 68 136
e 68 155
e 68 158
e 68 160
e 68 162
e 68 163
e 68 164
e 68 175
e 68 177
e 68 182
e 68 187
e 69 85
e 69 88
e 69 93
e 69 96
e 69 99
e 69 103
e 69 113
e 69 126
e 69 127
e 69 130
e 69 142
e 69 157
e 69 160
e 69 164
e 69 174
e 69 180
e 69 182
e 69 188
e 69 189
e 70 72
e 70 75
e 70 77
e 70 85
e 70 86
e 70 88
e 70 90
e 70 94
e 70 97
e 70 98
e 70 106
e 70 109
e 70 110
e 70 116
e 70 118
e 70 119
e 70 123
e 70 129
e 70 132
e 70 133
e 70 138
e 70 153
e 70 156
e 70 159
e 70 161
e 70 163
e 70 164
e 70 166
e 70 167
e 70 168
e 70 176
e 70 182
e 70 185
e 70 191
e 70 198
e 71 76
e 71 84
e 71 87
e 71 97
e 71 102
e 71 106
e 71 115
e 71 118
e 71 123
e 71 125
e 71 126
e 71 127
e 71 134
e 71 137
e 71 138
e 71 145
e 71 148
e 71 152
e 71 155
e 71 161
e 71 165
e 71 167
e 71 171
e 71 172
e 71 174
e 71 175
e 71 176
e 71 185
e 71 186
e 71 187
e 71 199
e 71 200
e 72 76
e 72 79
e 72 85
e 72 88
e 72 93
e 72 94
e 72 105
e 72 109
e 72 120
e 72 125
e 72 128
e 72 129
e 72 144
e 72 147
e 72 151
e 72 152
e 72 157
e 72 162
e 72 174
e 72 175
e 72 179
e 72 180
e 72 181
e 72 186
e 72 187
e 72 189
e 72 192
e 72 194
e 72 196
e 72 200
e 73 78
e 73 83
e 73 90
e 73 91
e 73 92
e 73 97
e 73 99
e 73 102
e 73 103
e 73 107
e 73 110
e 73 121
e 73 126
e 73 129
e 73 132
e 73 134
e 73 135
e 73 144
e 73 148
e 73 154
e 73 156
e 73 157
e 73 159
e 73 162
e 73 166
e 73 169
e 73 174
e 73 175
e 73 178
e 73 188
e 73 193
e 73 197
e 74 76
e 74 81
e 74 82
e 74 87
e 74 89
e 74 92
e 74 95
e 74 97
e 74 98
e 74 103
e 74 107
e 74 114
e 74 115
e 74 116
e 74 134
e 74 138
e 74 142
e 74 158
e 74 165
e 74 167
e 74 184
e 74 186
e 75 81
e 75 84
e 75 88
e 75 93
e 75 103
e 75 107
e 75 111
e 75 122
e 75 123
e 75 134
e 75 137
e 75 139
e 75 140
e 75 153
e 75 155
e 75 158
e 75 161
e 75 167
e 75 168
e 75 169
e 75 171
e 75 175
e 75 177
e 75 183
e 75 185
e 75 190
e 75 199
e 76 83
e 76 84
e 76 96
e 76 97
e 76 100
e 76 110
e 76 111
e 76 114
e 76 116
e 76 119
e 76 124
e 76 126
e 76 129
e 76 131
e 76 141
e 76 149
e 76 158
e 76 174
e 77 80
e 77 82
e 77 84
e 77 91
e 77 94
e 77 96
e 77 103
e 77 109
e 77 111
e 77 115
e 77 116
e 77 118
e 77 120
e 77 123
e 77 129
e 77 150
e 77 160
e 77 166
e 77 168
e 77 180
e 77 183
e 77 189
e 77 195
e 78 91
e 78 92
e 78 95
e 78 119
e 78 135
e 78 138
e 78 143
e 78 144
e 78 148
e 78 150
e 78 154
e 78 160
e 78 167
e 78 170
e 78 173
e 78 178
e 78 184
e 78 185
e 78 186
e 78 187
e 78 190
e 78 192
e 78 196
e 79 88
e 79 95
e 79 103
e 79 119
e 79 121
e 79 128
e 79 132
e 79 138
e 79 139
e 79 151
e 79 157
e 79 182
e 79 183
e 79 187
e 79 188
e 80 87
e 80 88
e 80 89
e 80 90
e 80 97
e 80 102
e 80 104
e 80 106
e 80 110
e 80 116
e 80 118
e 80 120
e 80 122
e 80 123
e 80 126
e 80 128
e 80 135
e 80 139
e 80 140
e 80 148
e 80 157
e 80 174
e 80 180
e 80 186
e 80 188
e 80 192
e 80 200
e 81 85
e 81 106
e 81 122
e 81 129
e 81 133
e 81 148
e 81 155
e 81 156
e 81 159
e 81 168
e 81 178
e 81 179
e 81 180
e 81 183
e 81 195
e 81 200
e 82 88
e 82 92
e 82 116
e 82 121
e 82 129
e 82 150
e 82 162
e 82 165
e 82 166
e 82 170
e 82 173
e 82 174
e 82 177
e 82 184
e 82 187
e 82 191
e 82 192
e 82 193
e 82 195
e 82 199
e 83 87
e 83 89
e 83 98
e 83 111
e 83 113
e 83 121
e 83 130
e 83 132
e 83 136
e 83 140
e 83 141
e 83 147
e 83 162
e 83 166
e 83 169
e 83 175
e 83 182
e 83 194
e 83 198
e 84 88
e 84 90
e 84 93
e 84 94
e 84 107
e 84 109
e 84 110
e 84 113
e 84 119
e 84 120
e 84 127
e 84 132
e 84 137
e 84 142
e 84 149
e 84 150
e 84 158
e 84 159
e 84 161
e 84 167
e 84 179
e 84 181
e 84 185
e 84 196
e 85 88
e 85 89
e 85 94
e 85 104
e 85 105
e 85 111
e 85 114
e 85 121
e 85 130
e 85 133
e 85 134
e 85 136
e 85 143
e 85 160
e 85 171
e 85 175
e 85 182
e 85 188
e 85 189
e 85 192
e 85 193
e 85 200
e 86 92
e 86 93
e 86 98
e 86 115
e 86 118
e 86 121
e 86 140
e 86 150
e 86 162
e 86 173
e 86 176
e 86 181
e 86 191
e 86 198
e 86 199
e 86 200
e 87 98
e 87 104
e 87 121
e 87 128
e 87 130
e 87 131
e 87 148
e 87 157
e 87 168
e 87 169
e 87 170
e 87 180
e 87 184
e 87 192
e 87 196
e 87 200
e 88 92
e 88 95
e 88 100
e 88 104
e 88 111
e 88 122
e 88 127
e 88 129
e 88 131
e 88 143
e 88 144
e 88 149
e 88 160
e 88 165
e 88 174
e 88 175
e 88 179
e 88 187
e 88 192
e 89 90
e 89 91
e 89 92
e 89 104
e 89 107
e 89 115
e 89 133
e 89 149
e 89 150
e 89 152
e 89 153
e 89 156
e 89 160
e 89 166
e 89 167
e 89 168
e 89 170
e 89 180
e 89 182
e 89 192
e 89 198
e 90 93
e 90 94
e 90 109
e 90 115
e 90 118
e 90 124
e 90 125
e 90 130
e 90 132
e 90 137
e 90 142
e 90 144
e 90 155
e 90 157
e 90 158
e 90 161
e 90 166
e 90 168
e 90 169
e 90 170
e 90 171
e 90 174
e 90 176
e 90 177
e 90 178
e 90 186
e 90 192
e 90 195
e 90 198
e 90 199
e 91 92
e 91 105
e 91 107
e 91 113
e 91 117
e 91 126
e 91 128
e 91 131
e 91 140
e 91 143
e 91 147
e 91 150
e 91 153
e 91 160
e 91 169
e 91 171
e 91 173
e 91 187
e 91 190
e 91 191
e 91 199
e 92 93
e 92 97
e 92 99
e 92 104
e 92 116
e 92 123
e 92 128
e 92 129
e 92 130
e 92 134
e 92 136
e 92 144
e 92 145
e 92 164
e 92 166
e 92 170
e 92 171
e 92 183
e 92 191
e 92 192
e 92 196
e 93 96
e 93 104
e 93 109
e 93 119
e 93 122
e 93 127
e 93 138
e 93 144
e 93 147
e 93 148
e 93 150
e 93 157
e 93 160
e 93 174
e 93 179
e 93 180
e 93 188
e 93 196
e 94 100
e 94 109
e 94 114
e 94 115
e 94 122
e 94 123
e 94 127
e 94 130
e 94 132
e 94 141
e 94 147
e 94 148
e 94 154
e 94 155
e 94 156
e 94 157
e 94 159
e 94 163
e 94 166
e 94 167
e 94 168
e 94 169
e 94 181
e 94 189
e 94 190
e 94 192
e 94 194
e 95 102
e 95 108
e 95 109
e 95 111
e 95 115
e 95 118
e 95 122
e 95 127
e 95 128
e 95 134
e 95 135
e 95 138
e 95 140
e 95 148
e 95 153
e 95 156
e 95 170
e 95 173
e 95 176
e 95 179
e 95 188
e 95 193
e 95 196
e 95 197
e 95 199
e 96 102
e 96 104
e 96 108
e 96 133
e 96 134
e 96 137
e 96 138
e 96 140
e 96 141
e 96 145
e 96 148
e 96 154
e 96 159
e 96 162
e 96 167
e 96 170
e 96 178
e 96 181
e 96 185
e 96 189
e 96 190
e 96 194
e 96 199
e 97 99
e 97 109
e 97 110
e 97 128
e 97 132
e 97 145
e 97 146
e 97 150
e 97 152
e 97 161
e 97 170
e 97 175
e 97 190
e 97 191
e 97 194
e 97 195
e 98 106
e 98 107
e 98 112
e 98 116
e 98 117
e 98 128
e 98 149
e 98 156
e 98 157
e 98 169
e 98 177
e 98 181
e 98 183
e 98 189
e 98 191
e 98 195
e 98 198
e 99 103
e 99 107
e 99 108
e 99 118
e 99 122
e 99 125
e 99 129
e 99 133
e 99 139
e 99 157
e 99 160
e 99 163
e 99 164
e 99 165
e 99 174
e 99 179
e 99 182
e 99 184
e 99 186
e 99 194
e 99 196
e 99 200
e 100 116
e 100 117
e 100 122
e 100 125
e 100 126
e 100 131
e 100 135
e 100 137
e 100 140
e 100 143
e 100 146
e 100 147
e 100 150
e 100 162
e 100 165
e 100 166
e 100 174
e 100 181
e 100 188
e 100 191
e 100 192
e 100 193
e 101 116
e 101 120
e 101 123
e 101 131
e 101 146
e 101 147
e 101 151
e 101 156
e 101 163
e 101 165
e 101 170
e 101 172
e 101 175
e 101 183
e 101 185
e 101 187
e 101 189
e 101 192
e 101 194
e 101 195
e 101 197
e 102 103
e 102 106
e 102 108
e 102 109
e 102 113
e 102 127
e 102 129
e 102 131
e 102 135
e 102 139
e 102 159
e 102 162
e 102 167
e 102 169
e 102 173
e 102 179
e 102 181
e 102 187
e 102 190
e 102 192
e 103 108
e 103 113
e 103 116
e 103 119
e 103 121
e 103 126
e 103 132
e 103 134
e 103 137
e 103 138
e 103 144
e 103 145
e 103 149
e 103 160
e 103 168
e 103 171
e 103 181
e 103 185
e 103 188
e 103 189
e 103 194
e 104 106
e 104 107
e 104 110
e 104 127
e 104 130
e 104 133
e 104 135
e 104 136
e 104 145
e 104 152
e 104 158
e 104 162
e 104 164
e 104 169
e 104 170
e 104 174
e 104 175
e 104 178
e 104 186
e 104 188
e 104 190
e 104 193
e 104 195
e 104 200
e 105 108
e 105 111
e 105 115
e 105 119
e 105 123
e 105 130
e 105 133
e 105 135
e 105 137
e 105 138
e 105 142
e 105 149
e 105 155
e 105 158
e 105 160
e 105 164
e 105 168
e 105 186
e 105 196
e 105 197
e 105 198
e 106 107
e 106 109
e 106 118
e 106 135
e 106 138
e 106 139
e 106 144
e 106 147
e 106 159
e 106 166
e 106 169
e 106 171
e 106 175
e 106 183
e 106 185
e 106 192
e 106 198
e 107 109
e 107 111
e 107 115
e 107 117
e 107 120
e 107 125
e 107 129
e 107 132
e 107 141
e 107 142
e 107 154
e 107 158
e 107 159
e 107 166
e 107 171
e 107 174
e 107 181
e 107 183
e 107 191
e 107 192
e 107 198
e 108 114
e 108 117
e 108 118
e 108 123
e 108 131
e 108 134
e 108 135
e 108 139
e 108 143
e 108 153
e 108 155
e 108 156
e 108 162
e 108 163
e 108 165
e 108 167
e 108 183
e 108 184
e 108 187
e 108 188
e 108 195
e 108 200
e 109 110
e 109 113
e 109 116
e 109 123
e 109 124
e 109 126
e 109 130
e 109 131
e 109 132
e 109 136
e 109 149
e 109 154
e 109 157
e 109 158
e 109 159
e 109 163
e 109 183
e 109 186
e 109 193
e 110 113
e 110 115
e 110 116
e 110 119
e 110 123
e 110 135
e 110 138
e 110 148
e 110 160
e 110 161
e 110 163
e 110 174
e 110 179
e 110 197
e 111 118
e 111 119
e 111 125
e 111 127
e 111 128
e 111 139
e 111 140
e 111 144
e 111 145
e 111 154
e 111 177
e 111 181
e 111 184
e 111 187
e 111 194
e 111 196
e 112 122
e 112 123
e 112 126
e 112 127
e 112 137
e 112 139
e 112 151
e 112 160
e 112 181
e 112 190
e 113 121
e 113 123
e 113 124
e 113 126
e 113 142
e 113 143
e 113 157
e 113 165
e 113 166
e 113 169
e 113 170
e 113 172
e 113 173
e 113 177
e 113 179
e 113 183
e 113 184
e 113 190
e 113 193
e 113 195
e 113 200
e 114 115
e 114 129
e 114 130
e 114 156
e 114 163
e 114 164
e 114 166
e 114 168
e 114 170
e 114 177
e 114 179
e 114 189
e 114 190
e 114 196
e 115 116
e 115 138
e 115 141
e 115 163
e 115 165
e 115 177
e 115 189
e 116 118
e 116 127
e 116 128
e 116 129
e 116 131
e 116 136
e 116 137
e 116 139
e 116 142
e 116 153
e 116 169
e 116 175
e 116 178
e 116 192
e 116 193
e 116 197
e 117 133
e 117 138
e 117 139
e 117 141
e 117 142
e 117 148
e 117 156
e 117 163
e 117 168
e 117 170
e 117 178
e 117 182
e 117 186
e 117 190
e 117 191
e 117 196
e 117 197
e 118 119
e 118 123
e 118 125
e 118 138
e 118 140
e 118 142
e 118 143
e 118 144
e 118 152
e 118 160
e 118 166
e 118 167
e 118 174
e 118 175
e 118 186
e 118 187
e 118 197
e 118 198
e 119 121
e 119 127
e 119 128
e 119 130
e 119 131
e 119 132
e 119 136
e 119 138
e 119 140
e 119 145
e 119 150
e 119 159
e 119 162
e 119 166
e 119 167
e 119 180
e 119 181
e 119 182
e 119 189
e 119 193
e 120 121
e 120 127
e 120 137
e 120 157
e 120 161
e 120 162
e 120 167
e 120 171
e 120 172
e 120 178
e 120 184
e 120 185
e 120 193
e 120 194
e 120 196
e 120 199
e 121 128
e 121 135
e 121 143
e 121 154
e 121 158
e 121 159
e 121 164
e 121 179
e 121 182
e 121 192
e 121 195
e 121 196
e 121 197
e 122 141
e 122 149
e 122 152
e 122 154
e 122 159
e 122 160
e 122 185
e 122 196
e 122 200
e 123 126
e 123 129
e 123 139
e 123 141
e 123 143
e 123 144
e 123 145
e 123 148
e 123 149
e 123 154
e 123 158
e 123 159
e 123 161
e 123 164
e 123 165
e 123 167
e 123 176
e 123 187
e 123 195
e 123 197
e 124 127
e 124 128
e 124 129
e 124 133
e 124 139
e 124 142
e 124 151
e 124 152
e 124 157
e 124 172
e 124 182
e 124 184
e 124 186
e 124 188
e 124 189
e 124 196
e 124 198
e 125 133
e 125 136
e 125 138
e 125 144
e 125 157
e 125 158
e 125 169
e 125 170
e 125 173
e 125 188
e 125 191
e 125 193
e 125 200
e 126 132
e 126 133
e 126 137
e 126 138
e 126 140
e 126 142
e 126 143
e 126 144
e 126 157
e 126 158
e 126 164
e 126 165
e 126 168
e 126 179
e 126 183
e 126 184
e 126 188
e 126 197
e 127 131
e 127 132
e 127 137
e 127 138
e 127 141
e 127 142
e 127 155
e 127 158
e 127 159
e 127 170
e 127 176
e 127 178
e 127 181
e 127 184
e 127 188
e 127 192
e 127 193
e 127 196
e 128 133
e 128 134
e 128 135
e 128 137
e 128 140
e 128 142
e 128 146
e 128 148
e 128 150
e 128 153
e 128 155
e 128 157
e 128 164
e 128 175
e 128 185
e 128 193
e 129 134
e 129 140
e 129 141
e 129 144
e 129 150
e 129 151
e 129 154
e 129 155
e 129 160
e 129 163
e 129 164
e 129 173
e 129 174
e 129 175
e 129 177
e 129 182
e 129 186
e 130 133
e 130 141
e 130 145
e 130 147
e 130 167
e 130 178
e 130 180
e 130 181
e 130 184
e 130 190
e 130 194
e 130 200
e 131 133
e 131 138
e 131 141
e 131 144
e 131 149
e 131 165
e 131 168
e 131 175
e 131 181
e 131 191
e 131 200
e 132 133
e 132 140
e 132 144
e 132 145
e 132 154
e 132 161
e 132 167
e 132 172
e 132 175
e 132 177
e 132 179
e 132 183
e 132 185
e 132 188
e 132 194
e 133 147
e 133 148
e 133 151
e 133 152
e 133 157
e 133 158
e 133 160
e 133 165
e 133 168
e 133 170
e 133 172
e 133 173
e 133 186
e 133 188
e 133 199
e 134 140
e 134 149
e 134 153
e 134 157
e 134 159
e 134 165
e 134 171
e 134 172
e 134 174
e 134 175
e 134 182
e 134 183
e 134 188
e 134 195
e 134 200
e 135 140
e 135 141
e 135 144
e 135 152
e 135 156
e 135 165
e 135 167
e 135 170
e 135 180
e 135 182
e 135 187
e 135 190
e 135 196
e 135 198
e 135 199
e 136 139
e 136 150
e 136 152
e 136 156
e 136 173
e 136 185
e 136 187
e 136 188
e 136 189
e 136 195
e 136 197
e 137 142
e 137 149
e 137 152
e 137 157
e 137 163
e 137 170
e 137 175
e 137 176
e 137 188
e 137 189
e 137 190
e 137 198
e 137 199
e 137 200
e 138 140
e 138 145
e 138 146
e 138 147
e 138 149
e 138 158
e 138 170
e 138 171
e 138 174
e 138 178
e 138 184
e 139 144
e 139 145
e 139 147
e 139 149
e 139 156
e 139 159
e 139 160
e 139 163
e 139 169
e 139 174
e 139 182
e 139 183
e 139 189
e 139 190
e 139 192
e 139 199
e 140 152
e 140 158
e 140 167
e 140 168
e 140 175
e 140 177
e 140 179
e 140 180
e 140 186
e 140 193
e 140 194
e 140 198
e 141 148
e 141 157
e 141 162
e 141 163
e 141 166
e 141 167
e 141 181
e 141 185
e 141 189
e 141 197
e 142 145
e 142 149
e 142 169
e 142 179
e 142 183
e 142 184
e 142 191
e 142 198
e 143 147
e 143 149
e 143 152
e 143 157
e 143 160
e 143 161
e 143 163
e 143 169
e 143 179
e 143 188
e 143 195
e 144 150
e 144 152
e 144 155
e 144 165
e 144 168
e 144 169
e 144 170
e 144 177
e 144 178
e 144 180
e 144 181
e 144 183
e 144 197
e 145 146
e 145 155
e 145 165
e 145 166
e 145 175
e 145 180
e 145 182
e 145 185
e 145 186
e 145 187
e 145 192
e 145 194
e 145 197
e 146 150
e 146 151
e 146 154
e 146 157
e 146 162
e 146 164
e 146 169
e 146 180
e 146 181
e 146 183
e 146 188
e 146 192
e 147 151
e 147 156
e 147 162
e 147 169
e 147 175
e 147 181
e 147 184
e 147 190
e 147 191
e 148 150
e 148 153
e 148 154
e 148 158
e 148 164
e 148 177
e 148 178
e 148 187
e 148 191
e 148 200
e 149 150
e 149 158
e 149 167
e 149 168
e 149 172
e 149 175
e 149 181
e 149 183
e 149 192
e 149 200
e 150 152
e 150 157
e 150 159
e 150 166
e 150 173
e 150 179
e 150 180
e 150 182
e 150 184
e 150 186
e 150 188
e 150 189
e 150 196
e 150 197
e 150 199
e 151 155
e 151 168
e 151 169
e 151 172
e 151 174
e 151 187
e 151 190
e 151 191
e 152 156
e 152 165
e 152 167
e 152 168
e 152 171
e 152 173
e 152 175
e 152 177
e 152 180
e 152 185
e 152 186
e 152 187
e 152 188
e 152 190
e 152 199
e 153 154
e 153 163
e 153 164
e 153 165
e 153 166
e 153 176
e 153 193
e 154 165
e 154 169
e 154 172
e 154 173
e 154 174
e 154 176
e 154 185
e 154 186
e 154 190
e 155 164
e 155 165
e 155 170
e 155 173
e 155 186
e 155 189
e 155 195
e 156 164
e 156 167
e 156 174
e 156 175
e 156 183
e 156 189
e 156 190
e 156 197
e 156 198
e 157 158
e 157 168
e 157 169
e 157 171
e 157 172
e 157 181
e 157 184
e 157 185
e 157 186
e 157 187
e 157 189
e 157 197
e 158 171
e 158 173
e 158 174
e 158 175
e 158 178
e 158 179
e 158 187
e 159 162
e 159 164
e 159 165
e 159 170
e 159 173
e 159 185
e 159 187
e 159 193
e 159 194
e 159 198
e 159 200
e 160 161
e 160 163
e 160 171
e 160 172
e 160 173
e 160 174
e 160 176
e 160 183
e 160 194
e 160 197
e 160 198
e 161 175
e 161 180
e 161 193
e 161 198
e 162 169
e 162 174
e 162 175
e 162 178
e 162 180
e 162 185
e 162 186
e 162 194
e 163 172
e 163 177
e 163 181
e 163 198
e 164 165
e 164 171
e 164 175
e 164 185
e 164 197
e 165 166
e 165 170
e 165 188
e 165 190
e 165 198
e 166 167
e 166 168
e 166 170
e 166 177
e 166 182
e 166 189
e 166 191
e 166 194
e 166 197
e 166 198
e 167 173
e 167 176
e 167 178
e 167 185
e 167 192
e 167 193
e 168 194
e 168 195
e 169 173
e 169 174
e 169 175
e 169 178
e 169 181
e 170 174
e 170 175
e 170 189
e 170 191
e 170 196
e 170 199
e 171 181
e 171 185
e 171 191
e 171 193
e 171 194
e 171 198
e 172 178
e 172 185
e 172 188
e 172 189
e 172 191
e 173 175
e 173 189
e 173 196
e 173 200
e 174 179
e 174 181
e 174 185
e 174 187
e 174 191
e 174 192
e 174 199
e 175 177
e 175 180
e 175 181
e 175 195
e 175 196
e 176 183
e 176 185
e 176 189
e 176 195
e 176 197
e 177 185
e 177 189
e 177 200
e 178 179
e 178 182
e 178 188
e 178 193
e 178 198
e 179 185
e 179 186
e 179 187
e 179 189
e 180 187
e 180 191
e 180 194
e 180 200
e 181 186
e 181 192
e 181 194
e 181 198
e 182 184
e 182 198
e 183 186
e 183 189
e 184 196
e 185 193
e 185 196
e 186 187
e 186 188
e 186 197
e 187 188
e 187 191
e 187 193
e 187 197
e 187 199
e 188 189
e 188 191
e 188 193
e 188 196
e 188 198
e 188 200
e 189 192
e 189 195
e 190 191
e 190 196
e 191 193
e 191 194
e 192 196
e 192 200
e 193 196
e 194 196
e 194 197
e 195 197